<?xml version = "1.0" encoding="UTF-8" standalone="yes"?>
<CPLEXSolution version="1.2">
 <header
   problemName="IloCplex"
   solutionName="incumbent"
   solutionIndex="-1"
   objectiveValue="19"
   solutionTypeValue="3"
   solutionTypeString="primal"
   solutionStatusValue="101"
   solutionStatusString="integer optimal solution"
   solutionMethodString="mip"
   primalFeasible="1"
   dualFeasible="1"
   MIPNodes="0"
   MIPIterations="59"
   writeLevel="1"/>
 <quality
   epInt="1.0000000000000001e-05"
   epRHS="9.9999999999999995e-07"
   maxIntInfeas="0"
   maxPrimalInfeas="0"
   maxX="19"
   maxSlack="51"/>
 <linearConstraints>
  <constraint index="0" slack="21"/>
  <constraint index="1" slack="13"/>
  <constraint index="2" slack="17"/>
  <constraint index="3" slack="0"/>
  <constraint index="4" slack="18"/>
  <constraint index="5" slack="2"/>
  <constraint index="6" slack="10"/>
  <constraint index="7" slack="14"/>
  <constraint index="8" slack="2"/>
  <constraint index="9" slack="14"/>
  <constraint index="10" slack="13"/>
  <constraint index="11" slack="10"/>
  <constraint index="12" slack="19"/>
  <constraint index="13" slack="2"/>
  <constraint index="14" slack="6"/>
  <constraint index="15" slack="15"/>
  <constraint index="16" slack="20"/>
  <constraint index="17" slack="0"/>
  <constraint index="18" slack="15"/>
  <constraint index="19" slack="16"/>
  <constraint index="20" slack="3"/>
  <constraint index="21" slack="19"/>
  <constraint index="22" slack="-17"/>
  <constraint index="23" slack="-31"/>
  <constraint index="24" slack="2"/>
  <constraint index="25" slack="19"/>
  <constraint index="26" slack="-18"/>
  <constraint index="27" slack="-33"/>
  <constraint index="28" slack="6"/>
  <constraint index="29" slack="19"/>
  <constraint index="30" slack="-10"/>
  <constraint index="31" slack="-45"/>
  <constraint index="32" slack="15"/>
  <constraint index="33" slack="19"/>
  <constraint index="34" slack="-2"/>
  <constraint index="35" slack="-45"/>
  <constraint index="36" slack="4"/>
  <constraint index="37" slack="24"/>
  <constraint index="38" slack="-13"/>
  <constraint index="39" slack="-41"/>
  <constraint index="40" slack="1"/>
  <constraint index="41" slack="19"/>
  <constraint index="42" slack="-19"/>
  <constraint index="43" slack="-33"/>
  <constraint index="44" slack="11"/>
  <constraint index="45" slack="19"/>
  <constraint index="46" slack="-6"/>
  <constraint index="47" slack="-46"/>
  <constraint index="48" slack="0"/>
  <constraint index="49" slack="19"/>
  <constraint index="50" slack="-20"/>
  <constraint index="51" slack="-31"/>
  <constraint index="52" slack="4"/>
  <constraint index="53" slack="19"/>
  <constraint index="54" slack="-15"/>
  <constraint index="55" slack="-47"/>
  <constraint index="56" slack="23"/>
  <constraint index="57" slack="31"/>
  <constraint index="58" slack="0"/>
  <constraint index="59" slack="-8"/>
  <constraint index="60" slack="2"/>
  <constraint index="61" slack="6"/>
  <constraint index="62" slack="-17"/>
  <constraint index="63" slack="-45"/>
  <constraint index="64" slack="11"/>
  <constraint index="65" slack="6"/>
  <constraint index="66" slack="-9"/>
  <constraint index="67" slack="-45"/>
  <constraint index="68" slack="0"/>
  <constraint index="69" slack="11"/>
  <constraint index="70" slack="-20"/>
  <constraint index="71" slack="-41"/>
  <constraint index="72" slack="22"/>
  <constraint index="73" slack="31"/>
  <constraint index="74" slack="-1"/>
  <constraint index="75" slack="-8"/>
  <constraint index="76" slack="7"/>
  <constraint index="77" slack="6"/>
  <constraint index="78" slack="-13"/>
  <constraint index="79" slack="-46"/>
  <constraint index="80" slack="21"/>
  <constraint index="81" slack="31"/>
  <constraint index="82" slack="-2"/>
  <constraint index="83" slack="-6"/>
  <constraint index="84" slack="0"/>
  <constraint index="85" slack="6"/>
  <constraint index="86" slack="-22"/>
  <constraint index="87" slack="-47"/>
  <constraint index="88" slack="3"/>
  <constraint index="89" slack="8"/>
  <constraint index="90" slack="-16"/>
  <constraint index="91" slack="-45"/>
  <constraint index="92" slack="12"/>
  <constraint index="93" slack="8"/>
  <constraint index="94" slack="-8"/>
  <constraint index="95" slack="-45"/>
  <constraint index="96" slack="1"/>
  <constraint index="97" slack="13"/>
  <constraint index="98" slack="-19"/>
  <constraint index="99" slack="-41"/>
  <constraint index="100" slack="23"/>
  <constraint index="101" slack="33"/>
  <constraint index="102" slack="0"/>
  <constraint index="103" slack="-8"/>
  <constraint index="104" slack="8"/>
  <constraint index="105" slack="8"/>
  <constraint index="106" slack="-12"/>
  <constraint index="107" slack="-46"/>
  <constraint index="108" slack="22"/>
  <constraint index="109" slack="33"/>
  <constraint index="110" slack="-1"/>
  <constraint index="111" slack="-6"/>
  <constraint index="112" slack="1"/>
  <constraint index="113" slack="8"/>
  <constraint index="114" slack="-21"/>
  <constraint index="115" slack="-47"/>
  <constraint index="116" slack="4"/>
  <constraint index="117" slack="20"/>
  <constraint index="118" slack="-12"/>
  <constraint index="119" slack="-45"/>
  <constraint index="120" slack="18"/>
  <constraint index="121" slack="0"/>
  <constraint index="122" slack="-48"/>
  <constraint index="123" slack="-16"/>
  <constraint index="124" slack="15"/>
  <constraint index="125" slack="45"/>
  <constraint index="126" slack="-4"/>
  <constraint index="127" slack="-8"/>
  <constraint index="128" slack="0"/>
  <constraint index="129" slack="20"/>
  <constraint index="130" slack="-16"/>
  <constraint index="131" slack="-46"/>
  <constraint index="132" slack="14"/>
  <constraint index="133" slack="45"/>
  <constraint index="134" slack="-5"/>
  <constraint index="135" slack="-6"/>
  <constraint index="136" slack="18"/>
  <constraint index="137" slack="45"/>
  <constraint index="138" slack="0"/>
  <constraint index="139" slack="-22"/>
  <constraint index="140" slack="10"/>
  <constraint index="141" slack="50"/>
  <constraint index="142" slack="-7"/>
  <constraint index="143" slack="-16"/>
  <constraint index="144" slack="7"/>
  <constraint index="145" slack="45"/>
  <constraint index="146" slack="-13"/>
  <constraint index="147" slack="-8"/>
  <constraint index="148" slack="17"/>
  <constraint index="149" slack="45"/>
  <constraint index="150" slack="0"/>
  <constraint index="151" slack="-21"/>
  <constraint index="152" slack="6"/>
  <constraint index="153" slack="45"/>
  <constraint index="154" slack="-14"/>
  <constraint index="155" slack="-6"/>
  <constraint index="156" slack="10"/>
  <constraint index="157" slack="45"/>
  <constraint index="158" slack="-9"/>
  <constraint index="159" slack="-22"/>
  <constraint index="160" slack="18"/>
  <constraint index="161" slack="41"/>
  <constraint index="162" slack="-2"/>
  <constraint index="163" slack="-13"/>
  <constraint index="164" slack="3"/>
  <constraint index="165" slack="16"/>
  <constraint index="166" slack="-14"/>
  <constraint index="167" slack="-51"/>
  <constraint index="168" slack="17"/>
  <constraint index="169" slack="41"/>
  <constraint index="170" slack="-3"/>
  <constraint index="171" slack="-11"/>
  <constraint index="172" slack="46"/>
  <constraint index="173" slack="16"/>
  <constraint index="174" slack="-23"/>
  <constraint index="175" slack="-2"/>
  <constraint index="176" slack="9"/>
  <constraint index="177" slack="8"/>
  <constraint index="178" slack="-11"/>
  <constraint index="179" slack="-46"/>
  <constraint index="180" slack="23"/>
  <constraint index="181" slack="33"/>
  <constraint index="182" slack="0"/>
  <constraint index="183" slack="-6"/>
  <constraint index="184" slack="2"/>
  <constraint index="185" slack="8"/>
  <constraint index="186" slack="-20"/>
  <constraint index="187" slack="-47"/>
  <constraint index="188" slack="10"/>
  <constraint index="189" slack="46"/>
  <constraint index="190" slack="-10"/>
  <constraint index="191" slack="-6"/>
  <constraint index="192" slack="14"/>
  <constraint index="193" slack="46"/>
  <constraint index="194" slack="-5"/>
  <constraint index="195" slack="-22"/>
  <constraint index="196" slack="3"/>
  <constraint index="197" slack="6"/>
  <constraint index="198" slack="-19"/>
  <constraint index="199" slack="-47"/>
 </linearConstraints>
 <variables>
  <variable name="x1" index="0" value="0"/>
  <variable name="r1" index="1" value="0"/>
  <variable name="y1" index="2" value="0"/>
  <variable name="y" index="3" value="19"/>
  <variable name="x2" index="4" value="7"/>
  <variable name="r2" index="5" value="0"/>
  <variable name="y2" index="6" value="0"/>
  <variable name="x3" index="7" value="6"/>
  <variable name="r3" index="8" value="0"/>
  <variable name="y3" index="9" value="0"/>
  <variable name="x4" index="10" value="10"/>
  <variable name="y4" index="11" value="0"/>
  <variable name="x5" index="12" value="19"/>
  <variable name="r5" index="13" value="0"/>
  <variable name="y5" index="14" value="0"/>
  <variable name="x6" index="15" value="8"/>
  <variable name="y6" index="16" value="5"/>
  <variable name="x7" index="17" value="5"/>
  <variable name="r7" index="18" value="0"/>
  <variable name="y7" index="19" value="0"/>
  <variable name="x8" index="20" value="15"/>
  <variable name="y8" index="21" value="0"/>
  <variable name="x9" index="22" value="4"/>
  <variable name="r9" index="23" value="0"/>
  <variable name="y9" index="24" value="0"/>
  <variable name="x10" index="25" value="8"/>
  <variable name="r10" index="26" value="0"/>
  <variable name="y10" index="27" value="0"/>
  <variable name="p12" index="28" value="0"/>
  <variable name="q12" index="29" value="0"/>
  <variable name="p13" index="30" value="0"/>
  <variable name="q13" index="31" value="0"/>
  <variable name="p14" index="32" value="0"/>
  <variable name="q14" index="33" value="0"/>
  <variable name="p15" index="34" value="0"/>
  <variable name="q15" index="35" value="0"/>
  <variable name="p16" index="36" value="0"/>
  <variable name="q16" index="37" value="0"/>
  <variable name="p17" index="38" value="0"/>
  <variable name="q17" index="39" value="0"/>
  <variable name="p18" index="40" value="0"/>
  <variable name="q18" index="41" value="0"/>
  <variable name="p19" index="42" value="0"/>
  <variable name="q19" index="43" value="0"/>
  <variable name="p110" index="44" value="0"/>
  <variable name="q110" index="45" value="0"/>
  <variable name="p23" index="46" value="1"/>
  <variable name="q23" index="47" value="0"/>
  <variable name="p24" index="48" value="0"/>
  <variable name="q24" index="49" value="0"/>
  <variable name="p25" index="50" value="0"/>
  <variable name="q25" index="51" value="0"/>
  <variable name="p26" index="52" value="0"/>
  <variable name="q26" index="53" value="0"/>
  <variable name="p27" index="54" value="1"/>
  <variable name="q27" index="55" value="0"/>
  <variable name="p28" index="56" value="0"/>
  <variable name="q28" index="57" value="0"/>
  <variable name="p29" index="58" value="1"/>
  <variable name="q29" index="59" value="0"/>
  <variable name="p210" index="60" value="0"/>
  <variable name="q210" index="61" value="0"/>
  <variable name="p34" index="62" value="0"/>
  <variable name="q34" index="63" value="0"/>
  <variable name="p35" index="64" value="0"/>
  <variable name="q35" index="65" value="0"/>
  <variable name="p36" index="66" value="0"/>
  <variable name="q36" index="67" value="0"/>
  <variable name="p37" index="68" value="1"/>
  <variable name="q37" index="69" value="0"/>
  <variable name="p38" index="70" value="0"/>
  <variable name="q38" index="71" value="0"/>
  <variable name="p39" index="72" value="1"/>
  <variable name="q39" index="73" value="0"/>
  <variable name="p310" index="74" value="0"/>
  <variable name="q310" index="75" value="0"/>
  <variable name="p45" index="76" value="0"/>
  <variable name="q45" index="77" value="0"/>
  <variable name="p46" index="78" value="0"/>
  <variable name="q46" index="79" value="1"/>
  <variable name="p47" index="80" value="1"/>
  <variable name="q47" index="81" value="0"/>
  <variable name="p48" index="82" value="0"/>
  <variable name="q48" index="83" value="0"/>
  <variable name="p49" index="84" value="1"/>
  <variable name="q49" index="85" value="0"/>
  <variable name="p410" index="86" value="1"/>
  <variable name="q410" index="87" value="0"/>
  <variable name="p56" index="88" value="1"/>
  <variable name="q56" index="89" value="0"/>
  <variable name="p57" index="90" value="1"/>
  <variable name="q57" index="91" value="0"/>
  <variable name="p58" index="92" value="1"/>
  <variable name="q58" index="93" value="0"/>
  <variable name="p59" index="94" value="1"/>
  <variable name="q59" index="95" value="0"/>
  <variable name="p510" index="96" value="1"/>
  <variable name="q510" index="97" value="0"/>
  <variable name="p67" index="98" value="1"/>
  <variable name="q67" index="99" value="0"/>
  <variable name="p68" index="100" value="0"/>
  <variable name="q68" index="101" value="0"/>
  <variable name="p69" index="102" value="1"/>
  <variable name="q69" index="103" value="0"/>
  <variable name="p610" index="104" value="1"/>
  <variable name="q610" index="105" value="1"/>
  <variable name="p78" index="106" value="0"/>
  <variable name="q78" index="107" value="0"/>
  <variable name="p79" index="108" value="1"/>
  <variable name="q79" index="109" value="0"/>
  <variable name="p710" index="110" value="0"/>
  <variable name="q710" index="111" value="0"/>
  <variable name="p89" index="112" value="1"/>
  <variable name="q89" index="113" value="0"/>
  <variable name="p810" index="114" value="1"/>
  <variable name="q810" index="115" value="0"/>
  <variable name="p910" index="116" value="0"/>
  <variable name="q910" index="117" value="0"/>
 </variables>
</CPLEXSolution>
